 &inputph
  prefix='water',
  fildyn='water.dyn.xml',
  ldisp=.TRUE.
  nq1=1, nq2=1, nq3=1,
/
