 &inputph
  prefix='water',
  fildyn='water.dyn.xml',
  ldisp=.TRUE.
  nq1=4, nq2=4, nq3=4,
/
