&CONTROL
 calculation='scf',
 prefix='water',
 pseudo_dir='/home/ayong/pslibrary-master/pbe/PSEUDOPOTENTIALS',
/
&SYSTEM
 ibrav=0,
 ntyp=2,
 nat=3,
 ecutwfc=50,
/
&ELECTRONS
/
&IONS
/
ATOMIC_SPECIES
O 15.999 O.pbe-n-kjpaw_psl.1.0.0.UPF
H 1.00784 H.pbe-kjpaw_psl.1.0.0.UPF

ATOMIC_POSITIONS (angstrom)
O             0.9242104056        0.9361038386        1.0261204507
H             0.6413561051        0.5206923851        0.1956086279
H             1.8946334893        0.9171037763        0.9881709214

K_POINTS AUTOMATIC
1 1 1 0 0 0 

CELL_PARAMETERS {angstrom}
 	15.00	0.00	0.00
	0.00	15.00	0.00
  	0.00  	0.00  	15.00
